p cnf 20 20
-17 19 18 0
7 17 15 0
-15 -19 9 0
-3 -17 -20 0
18 20 -2 0
2 -12 -9 0
-19 -8 -17 0
-1 -13 -9 0
-19 -16 -6 0
6 -5 -13 0
-2 4 3 0
-1 -9 2 0
-2 -15 -1 0
-7 3 14 0
-17 18 20 0
18 -12 -9 0
-18 2 19 0
-14 19 15 0
-5 -12 17 0
3 20 6 0
